0  1  2  3  4  5  6  7  8  9  10
1    12.2  0  5.6  17.7  0  0  0  0  0  10.8
2    19.7  11.7  0  18.1  8.6  0  0  14.8  0  0
3    0  0  9.1  0  13.1  16.6  0  0  7  0
4    15.3  0  11.7  0  0  0  19.8  0  0  0
5    0  10.3  0  18.5  12.3  0  0  18.2  0  0
6    0  9.3  5.1  0  17.4  10.2  0  0  13.3  0
7    0  6.7  0  8.2  0  0  9  0  0  17
8    7.1  0  6.3  0  0  0  0  0  0  6
9    0  17.4  0  17.3  18.5  0  0  10.8  0  0
10    0  0  17.8  0  0  12.6  8.3  0  0  10.7

1  2  3  4  5  6  7  8  9  10
3  5  4.9  3  4.5  3  5  4.7  3.9  4.2
